
Log started (V12.10.0.0) Fri Apr  2 11:13:55 2021

Warning, line 611: Name 's156' does not exist.
Warning, line 612: Name 's171' does not exist.

Problem 'asset.lp' read.
Read time = 0.00 sec. (0.04 ticks)
New value for default parallel thread count: 1
New value for time limit in seconds: 400
Version identifier: 12.10.0.0 | 2019-11-26 | 843d4de
CPXPARAM_Threads                                 1
CPXPARAM_TimeLimit                               400
Found incumbent of value 0.000000 after 0.00 sec. (0.01 ticks)
Tried aggregator 3 times.
MIP Presolve eliminated 181 rows and 108 columns.
MIP Presolve modified 340 coefficients.
Aggregator did 118 substitutions.
Reduced MIP has 140 rows, 183 columns, and 568 nonzeros.
Reduced MIP has 154 binaries, 22 generals, 0 SOSs, and 0 indicators.
Presolve time = 0.00 sec. (1.44 ticks)
Probing fixed 58 vars, tightened 7 bounds.
Probing time = 0.00 sec. (0.23 ticks)
Cover probing fixed 0 vars, tightened 48 bounds.
Tried aggregator 2 times.
MIP Presolve eliminated 109 rows and 105 columns.
MIP Presolve added 1 rows and 1 columns.
MIP Presolve modified 2 coefficients.
Aggregator did 6 substitutions.
Reduced MIP has 26 rows, 72 columns, and 134 nonzeros.
Reduced MIP has 57 binaries, 15 generals, 0 SOSs, and 0 indicators.
Presolve time = 0.00 sec. (0.41 ticks)
Probing fixed 0 vars, tightened 1 bounds.
Probing time = 0.00 sec. (0.04 ticks)
Tried aggregator 1 time.
Detecting symmetries...
MIP Presolve eliminated 1 rows and 1 columns.
MIP Presolve added 1 rows and 1 columns.
Reduced MIP has 26 rows, 72 columns, and 134 nonzeros.
Reduced MIP has 57 binaries, 15 generals, 0 SOSs, and 0 indicators.
Presolve time = 0.00 sec. (0.12 ticks)
Probing time = 0.00 sec. (0.04 ticks)
Clique table members: 38.
MIP emphasis: balance optimality and feasibility.
MIP search method: dynamic search.
Parallel mode: none, using 1 thread.
Root relaxation solution time = 0.00 sec. (0.09 ticks)

        Nodes                                         Cuts/
   Node  Left     Objective  IInf  Best Integer    Best Bound    ItCnt     Gap

*     0+    0                            0.0000       78.0000              --- 
      0     0       45.0000     2        0.0000       45.0000       15     --- 
*     0+    0                           40.0000       45.0000            12.50%
      0     0       45.0000     2       40.0000       Cuts: 7       19   12.50%
*     0+    0                           42.0000       45.0000             7.14%
*     0+    0                           44.0000       45.0000             2.27%
      0     0        cutoff             44.0000       45.0000       23    2.27%
Elapsed time = 0.01 sec. (2.98 ticks, tree = 0.01 MB, solutions = 3)

Cover cuts applied:  1
Implied bound cuts applied:  1
Flow cuts applied:  1
Zero-half cuts applied:  1
Gomory fractional cuts applied:  2

Root node processing (before b&c):
  Real time             =    0.01 sec. (3.00 ticks)
Sequential b&c:
  Real time             =    0.00 sec. (0.00 ticks)
                          ------------
Total (root+branch&cut) =    0.01 sec. (3.00 ticks)

Solution pool: 4 solutions saved.

MIP - Integer optimal solution:  Objective =  4.4000000000e+01
Solution time =    0.01 sec.  Iterations = 23  Nodes = 0
Deterministic time = 3.00 ticks  (402.36 ticks/sec)


Incumbent solution
Variable Name           Solution Value
F                            44.000000
y3                            1.000000
y255                          1.000000
y168                          1.000000
y158                          1.000000
y206                          1.000000
y185                          1.000000
y10                           1.000000
y39                           1.000000
y192                          1.000000
x227x10x1                     1.000000
x66x10x1                      1.000000
x226x255x1                    1.000000
x50x192x1                     1.000000
x99x185x2                     1.000000
x84x168x2                     1.000000
x182x255x2                    1.000000
x57x206x2                     2.000000
x227x158x3                    1.000000
x22x158x3                     1.000000
x99x185x3                     1.000000
x37x39x3                      2.000000
x244x3x3                      1.000000
x244x168x3                    1.000000
x214x3x3                      1.000000
x3x0x3                        1.000000
x3x192x3                      1.000000
x255x0x1                      1.000000
x255x0x2                      1.000000
x168x0x2                      1.000000
x168x0x3                      1.000000
x158x0x3                      2.000000
x206x0x2                      2.000000
x185x0x2                      1.000000
x185x0x3                      1.000000
x10x0x1                       2.000000
x39x0x3                       2.000000
x192x0x1                      1.000000
x192x0x3                      1.000000
s227                          7.541177
s74                           9.120000
s158                          9.260000
z227z158z3                    1.000000
s32                           9.280000
z227z32z1                     1.000000
s238                          9.290000
z227z238z3                    1.000000
s185                          9.340000
s189                          9.370000
z227z189z1                    1.000000
s10                           9.420000
z227z10z1                     1.000000
s39                           9.480000
z227z39z3                     1.000000
s192                          9.490000
s66                           7.832496
z66z32z1                      1.000000
z66z189z1                     1.000000
z66z10z1                      1.000000
s22                           7.885362
z22z158z3                     1.000000
z22z238z3                     1.000000
s206                          9.310000
z22z206z2                     1.000000
z22z39z3                      1.000000
s226                          7.326861
s70                           8.590552
s76                           8.606721
s255                          8.709303
z226z255z1                    1.000000
s222                          7.820000
s5                            8.543823
z226z32z1                     1.000000
z226z189z1                    1.000000
z226z10z1                     1.000000
s99                           7.966986
z99z185z2                     1.000000
z99z185z3                     1.000000
s169                          8.074304
s50                           8.351955
z50z192z1                     1.000000
s37                           7.550000
z37z158z3                     1.000000
z37z238z3                     1.000000
z37z39z3                      1.000000
s244                          6.825250
s88                           7.550000
s3                            8.235765
z244z3z3                      1.000000
s134                          8.533834
s168                          8.648307
z244z168z3                    1.000000
s202                          8.930000
z244z202z3                    1.000000
z244z158z3                    1.000000
z244z238z3                    1.000000
z244z39z3                     1.000000
s84                           7.240820
z84z168z2                     1.000000
z84z206z2                     1.000000
s182                          7.374660
z182z255z2                    1.000000
z182z206z2                    1.000000
s57                           7.625120
z57z206z2                     1.000000
s214                          5.913560
z214z3z3                      1.000000
z214z202z3                    1.000000
z214z158z3                    1.000000
z214z238z3                    1.000000
z214z39z3                     1.000000
z3z192z3                      1.000000
All other variables in the range 1-416 are 0.
